
Log started (V12.10.0.0) Fri Apr  2 17:45:46 2021


Problem 'asset.lp' read.
Read time = 0.01 sec. (0.17 ticks)
New value for default parallel thread count: 1
New value for time limit in seconds: 300
Version identifier: 12.10.0.0 | 2019-11-26 | 843d4de
CPXPARAM_Threads                                 1
CPXPARAM_TimeLimit                               300
Found incumbent of value -0.898300 after 0.00 sec. (0.08 ticks)
Tried aggregator 4 times.
MIP Presolve eliminated 400 rows and 296 columns.
MIP Presolve modified 1519 coefficients.
Aggregator did 522 substitutions.
Reduced MIP has 687 rows, 700 columns, and 2944 nonzeros.
Reduced MIP has 601 binaries, 61 generals, 0 SOSs, and 0 indicators.
Presolve time = 0.01 sec. (8.04 ticks)
Probing fixed 199 vars, tightened 33 bounds.
Probing time = 0.00 sec. (1.91 ticks)
Cover probing fixed 0 vars, tightened 133 bounds.
Tried aggregator 2 times.
MIP Presolve eliminated 329 rows and 316 columns.
MIP Presolve modified 13 coefficients.
Aggregator did 4 substitutions.
Reduced MIP has 354 rows, 369 columns, and 1219 nonzeros.
Reduced MIP has 321 binaries, 10 generals, 0 SOSs, and 0 indicators.
Presolve time = 0.00 sec. (2.55 ticks)
Probing time = 0.00 sec. (0.68 ticks)
Tried aggregator 1 time.
Detecting symmetries...
MIP Presolve modified 6 coefficients.
Reduced MIP has 354 rows, 369 columns, and 1219 nonzeros.
Reduced MIP has 321 binaries, 10 generals, 0 SOSs, and 0 indicators.
Presolve time = 0.00 sec. (0.90 ticks)
Probing time = 0.00 sec. (0.68 ticks)
Clique table members: 432.
MIP emphasis: balance optimality and feasibility.
MIP search method: dynamic search.
Parallel mode: none, using 1 thread.
Root relaxation solution time = 0.00 sec. (2.33 ticks)

        Nodes                                         Cuts/
   Node  Left     Objective  IInf  Best Integer    Best Bound    ItCnt     Gap

*     0+    0                           -0.8983      477.4703              --- 
      0     0      178.1289    71       -0.8983      178.1289      245     --- 
*     0+    0                          157.1549      178.1289            13.35%
      0     0      171.2455    71      157.1549      Cuts: 68      321    8.97%
*     0+    0                          161.3647      171.2455             6.12%
      0     0      170.9786    71      161.3647      Cuts: 50      419    5.96%
*     0+    0                          170.9731      170.9786             0.00%

GUB cover cuts applied:  2
Clique cuts applied:  10
Cover cuts applied:  1
Implied bound cuts applied:  19
Mixed integer rounding cuts applied:  1
Zero-half cuts applied:  4
Lift and project cuts applied:  2
Gomory fractional cuts applied:  13

Root node processing (before b&c):
  Real time             =    0.04 sec. (33.57 ticks)
Sequential b&c:
  Real time             =    0.00 sec. (0.00 ticks)
                          ------------
Total (root+branch&cut) =    0.04 sec. (33.57 ticks)

Solution pool: 4 solutions saved.

MIP - Integer optimal, tolerance (0.0001/1e-06):  Objective =  1.7097306259e+02
Current MIP best bound =  1.7097862718e+02 (gap = 0.00556459, 0.00%)
Solution time =    0.04 sec.  Iterations = 419  Nodes = 0 (1)
Deterministic time = 33.57 ticks  (836.68 ticks/sec)


Incumbent solution
Variable Name           Solution Value
F                           185.000000
f1                            0.916937
f2                           13.110000
y22                           1.000000
y142                          1.000000
y258                          1.000000
y79                           1.000000
y224                          1.000000
y186                          1.000000
y216                          1.000000
y25                           1.000000
y73                           1.000000
y75                           1.000000
y139                          1.000000
s1                            6.000000
s3                            6.000000
s4                            6.000000
s18                           6.000000
s22                           6.183585
s32                           6.000000
s36                           6.000000
s37                           6.000000
s89                           6.000000
s121                          6.000000
s135                          6.000000
s137                          6.000000
s141                          6.000000
s142                          6.915181
s147                          6.000000
s152                          6.000000
s173                          6.000000
s179                          6.000000
s181                          6.000000
s183                          6.000000
s193                          6.000000
s194                          6.000000
s215                          6.000000
s217                          6.000000
s241                          6.000000
s243                          6.000000
s245                          6.000000
s246                          6.000000
s247                          6.000000
s258                          6.880450
s259                          6.000000
s268                          6.000000
s271                          6.000000
s275                          6.000000
s283                          6.000000
s284                          6.000000
s196                          6.030000
s102                          6.050000
s118                          6.100000
s79                           7.073954
s224                          6.158991
s285                          6.160000
s45                           6.180000
s170                          6.190000
s91                           6.200000
s195                          6.200000
s71                           6.220000
s38                           6.240000
s97                           6.260000
s186                          6.970071
s216                          7.057644
s25                           7.180072
s59                           6.310000
s125                          6.310000
s73                           7.292927
s75                           6.942693
s189                          6.370000
s139                          6.889397
s213                          6.410000
x256x216x1                    1.000000
x249x224x1                    1.000000
x299x216x1                    1.000000
x242x75x1                     1.000000
x231x22x1                     1.000000
x76x79x1                      1.000000
x226x142x2                    1.000000
x175x186x2                    1.000000
x61x142x2                     1.000000
x61x186x2                     1.000000
x231x22x2                     1.000000
x226x139x3                    1.000000
x256x139x3                    1.000000
x93x79x3                      1.000000
x93x73x3                      1.000000
x175x224x3                    1.000000
x299x258x3                    1.000000
x242x258x3                    1.000000
x76x75x3                      1.000000
x22x0x1                       1.000000
x22x73x2                      1.000000
x142x0x2                      2.000000
x258x0x3                      2.000000
x79x0x1                       1.000000
x79x0x3                       1.000000
x224x25x1                     1.000000
x224x25x3                     1.000000
x186x0x2                      2.000000
x216x0x1                      2.000000
x25x0x1                       1.000000
x25x0x3                       1.000000
x73x0x2                       1.000000
x73x0x3                       1.000000
x75x0x1                       1.000000
x75x0x3                       1.000000
x139x0x3                      2.000000
s226                          5.320269
z226z142z2                    1.000000
z226z139z3                    1.000000
s256                          5.298436
z256z216z1                    1.000000
z256z139z3                    1.000000
s93                           5.680000
z93z79z3                      1.000000
z93z73z3                      1.000000
s175                          4.695820
z175z224z3                    1.000000
z175z186z2                    1.000000
s249                          4.729890
z249z224z1                    1.000000
z249z189z1                    1.000000
s299                          4.897320
z299z258z3                    1.000000
z299z216z1                    1.000000
s242                          4.864760
z242z258z3                    1.000000
z242z75z1                     1.000000
s61                           5.047530
z61z142z2                     1.000000
z61z186z2                     1.000000
s231                          4.775880
z231z22z1                     1.000000
z231z22z2                     1.000000
z231z189z1                    1.000000
s76                           4.871910
z76z79z1                      1.000000
z76z75z3                      1.000000
z22z73z2                      1.000000
z224z25z1                     1.000000
z224z25z3                     1.000000
All other variables in the range 1-1523 are 0.
